p cnf 8 25
-2 8 1 0
4 8 6 0
3 2 -8 0
7 -3 6 0
-8 -7 -1 0
6 2 -4 0
3 -5 1 0
3 3 1 0
-3 1 -7 0
-8 -2 -6 0
6 1 -3 0
-4 7 -4 0
-1 -8 -6 0
4 -1 -2 0
-5 -5 8 0
1 2 3 4 5 6 7 8 0
2 -3 -6 0
-1 -2 -3 -4 -5 -6 -7 -8 0
2 -7 -6 0
-2 -5 -5 0
8 3 1 0
3 -3 5 0
-4 7 -6 0
6 7 5 0
-6 -8 4 0
